# 72356
param k := 6;
param n := 50;
param s := 1;
set E :=  (0,7) (1,26) (1,30) (1,34) (2,32) (2,36) (3,17) (3,32) (3,47) (4,23) (4,36) (4,45) (5,46) (6,33) (6,46) (7,16) (7,21) (7,27) (7,35) (8,20) (8,34) (8,36) (9,29) (9,35) (9,39) (10,16) (10,25) (10,29) (10,47) (11,36) (11,46) (12,21) (12,49) (13,31) (13,36) (13,45) (13,47) (14,20) (14,27) (15,34) (16,46) (17,42) (18,28) (19,36) (19,47) (20,38) (20,45) (21,24) (21,44) (21,45) (22,31) (22,45) (24,42) (24,43) (24,46) (24,47) (26,27) (26,28) (26,30) (27,33) (27,36) (28,40) (29,49) (30,48) (30,49) (31,46) (33,39) (33,47) (34,43) (36,39) (37,45) (38,41) (39,47) (41,48);